%%% static parameters %%%
timespan = 1;
Fact = [1];
Distr1 = [15];
Distr2 = [20];
Clients_N = [100];
Demand_W = [15];
Lt0 = [4];
Lt1 = [4];
SS_ = [0.85];
DS_D = [20];
K = [200];
MA = [500];
%%% dynamic parameters %%%
lost_ratio_sales_ret_th = 0.13641025518695565;
lost_ratio_sales_ret_w = 56;
lost_ratio_sales_dis_th = 0.15788252097178931;
lost_ratio_sales_dis_w = 63;
lost_ratio_sales_fac_th = 0.0025197182020435527;
lost_ratio_sales_fac_w = 26;
stock_customer_MA_mean_relative_th = 0.47192837646959696;
stock_customer_MA_mean_relative_w = 7;
stock_distributor_MA_mean_relative_th = 0.9762386765186934;
stock_distributor_MA_mean_relative_w = 10;
stock_retailer_MA_mean_relative_th = 0.56240895602806;
stock_retailer_MA_mean_relative_w = 11;
stock_factory_MA_mean_relative_th = 0.48083221724979985;
stock_factory_MA_mean_relative_w = 2;
